p cnf 36 133
-1 5 6 0
-5 -6 0
1 -5 0
1 -6 0
-2 7 8 0
-7 -8 0
2 -7 0
2 -8 0
-3 9 10 0
-9 -10 0
3 -9 0
3 -10 0
-4 11 12 0
-11 -12 0
4 -11 0
4 -12 0
1 2 0
1 3 0
-1 3 2 0
-2 4 1 3 0
-3 1 4 2 0
-4 2 3 0
-1 1 0
-13 -1 1 0
-13 1 -1 0
13 1 1 0
13 -1 -1 0
-13 -2 3 0
-14 13 0
-14 -2 3 0
-14 2 -3 0
14 -13 2 3 0
14 -13 -2 -3 0
-14 -3 2 0
-15 14 0
-15 -3 2 0
-15 3 -2 0
15 -14 3 2 0
15 -14 -3 -2 0
-15 -4 4 0
-16 15 0
-16 -4 4 0
-16 4 -4 0
16 -15 4 4 0
16 -15 -4 -4 0
-6 0
-8 5 0
-10 5 7 0
-12 5 7 9 0
5 7 9 11 0
6 8 10 12 0
-17 5 6 0
-17 9 10 0
-17 -5 -9 0
-17 -6 -10 0
-18 5 6 0
-18 7 8 0
-18 -5 -7 0
-18 -6 -8 0
-19 7 8 0
-19 11 12 0
-19 -7 -11 0
-19 -8 -12 0
-20 7 8 0
-20 9 10 0
-20 -7 -9 0
-20 -8 -10 0
-21 9 10 0
-21 11 12 0
-21 -9 -11 0
-21 -10 -12 0
17 18 19 20 21 0
-22 1 0
22 -1 0
-23 2 0
-23 -1 0
23 -2 1 0
-24 3 0
-24 -1 0
-24 -2 0
24 -3 1 2 0
-25 4 0
-25 -1 0
-25 -2 0
-25 -3 0
25 -4 1 2 3 0
-22 5 0
-23 7 0
-24 9 0
-25 11 0
-22 26 0
22 -26 0
-23 28 0
23 -28 0
-24 30 0
24 -30 0
-25 32 0
25 -32 0
-26 27 0
-1 -30 27 0
-1 -28 27 0
-27 26 1 0
-27 26 30 28 0
-28 29 0
-2 -32 29 0
-2 -26 29 0
-2 -30 29 0
-29 28 2 0
-29 28 32 26 30 0
-30 31 0
-3 -26 31 0
-3 -32 31 0
-3 -28 31 0
-31 30 3 0
-31 30 26 32 28 0
-32 33 0
-4 -28 33 0
-4 -30 33 0
-33 32 4 0
-33 32 28 30 0
-1 27 0
-2 29 0
-3 31 0
-4 33 0
1 2 3 4 0
-1 34 0
-34 35 0
-2 -34 0
-2 35 0
-35 36 0
-3 -35 0
-3 36 0
-4 -36 0
